c Read 464 clauses.  174 variables
c Breaking ties randomly with seed 1
c Placed 464 terms into 84 buckets.
c Bucket 4 Reduced to term with 7 nodes
c Bucket 8 Reduced to term with 7 nodes
c Bucket 12 Reduced to term with 7 nodes
c Bucket 16 Reduced to term with 11 nodes
c Bucket 20 Reduced to term with 7 nodes
c Bucket 24 Reduced to term with 7 nodes
c Bucket 28 Reduced to term with 9 nodes
c Bucket 32 Reduced to term with 7 nodes
c Bucket 36 Reduced to term with 15 nodes
c Bucket 40 Reduced to term with 7 nodes
c Bucket 44 Reduced to term with 9 nodes
c Bucket 48 Reduced to term with 9 nodes
c Bucket 52 Reduced to term with 39 nodes
c Bucket 56 Reduced to term with 19 nodes
c Bucket 60 Reduced to term with 9 nodes
c Bucket 64 Reduced to term with 11 nodes
c Bucket 68 Reduced to term with 13 nodes
c Bucket 72 Reduced to term with 7 nodes
c Bucket 76 Reduced to term with 83 nodes
c Bucket 80 Reduced to term with 97 nodes
c Bucket 84 Reduced to term with 99 nodes
c Bucket 88 Reduced to term with 9 nodes
c Bucket 92 Reduced to term with 89 nodes
c Bucket 96 Reduced to term with 15 nodes
c Bucket 100 Reduced to term with 95 nodes
c Bucket 104 Reduced to term with 85 nodes
c Bucket 116 Reduced to term with 27 nodes
c Bucket 128 Reduced to term with 19 nodes
c Bucket 132 Reduced to term with 11 nodes
s UNSATISFIABLE

c Cache statistics
c ----------------
c Unique Access:  11607
c Unique Chain:   215
c Unique Hit:     2122
c Unique Miss:    9280
c => Hit rate =   0.19
c Operator Hits:  11153
c Operator Miss:  14637
c => Hit rate =   0.43
c Swap count =    0

c BDD statistics
c ----------------
c Total BDD nodes produced: 9280
c Input variables: 174
c Input clauses: 464
c Total clauses: 56586
c Unused+non-BDD clause IDs: 2186 (3.9%)
c Maximum live clauses: 43480
c Deleted clauses: 56122
c Final live clauses: 464
c Total variables: 9452
c Elapsed seconds: 0.042
-rw-r--r--  1 bryant  staff  2243311 Mar 10 23:07 chew-60-123456.lrat
c parsed a formula with 174 variables and 464 clauses
c VERIFIED
c allocated 1024 270886 1740
c Added clauses = 56586.  Deleted clauses = 13108.  Max live clauses = 43480
c verification time = 0.03 secs
